qbf_easy_train/easy_5745_UNSAT.qdimacs
p cnf 28 74
a 16 11 13 0
e 1 2 3 4 5 6 7 8 9 10 12 14 15 17 18 19 20 21 22 23 24 25 26 27 28 0
-3 1 0
-3 -2 0
-1 2 3 0
3 4 -5 0
-3 -4 -5 0
3 -4 5 0
-3 4 5 0
-7 1 0
-7 -6 0
-1 6 7 0
-6 -4 -8 0
6 4 -8 0
-6 4 8 0
6 -4 8 0
-10 -1 0
-10 -6 0
1 6 10 0
11 9 0
11 10 0
-9 -10 -11 0
-8 11 -12 0
8 -11 -12 0
-8 -11 12 0
8 11 12 0
-13 7 0
-13 12 0
-7 -12 13 0
15 14 0
15 -10 0
-14 10 -15 0
-13 15 -16 0
13 -15 -16 0
-13 -15 16 0
13 15 16 0
-18 -17 0
-18 3 0
17 -3 18 0
16 -18 -19 0
-16 18 -19 0
16 18 19 0
-16 -18 19 0
-20 -11 0
-20 -3 0
11 3 20 0
-21 -17 0
-21 3 0
17 -3 21 0
-17 21 -22 0
17 -21 -22 0
-17 -21 22 0
17 21 22 0
-23 20 0
-23 -22 0
-20 22 23 0
25 24 0
25 -1 0
-24 1 -25 0
-26 -23 0
-26 -25 0
23 25 26 0
27 -19 0
27 26 0
19 -26 -27 0
28 5 0
28 -27 0
-5 27 -28 0
-26 -19 -16 21 11 0
-24 -21 -28 27 25 2 19 13 0
-20 1 -26 -14 23 0
23 16 -17 0
8 -4 -14 -26 27 7 -10 0
-5 20 -12 -15 -19 0
-8 4 -3 0
28 0
