sat_easy_train/easy_5745_UNSAT.dimacs
p cnf 120 400
-3 -1 0
-3 2 0
1 -2 3 0
-3 -4 -5 0
3 4 -5 0
-3 4 5 0
3 -4 5 0
7 -5 0
7 -6 0
5 6 -7 0
8 7 0
8 -2 0
-7 2 -8 0
-12 -10 0
-12 11 0
10 -11 12 0
-9 12 -13 0
9 -12 -13 0
-9 -12 13 0
9 12 13 0
14 13 0
14 13 0
-13 -14 0
-15 -8 0
-15 -14 0
8 14 15 0
-17 16 0
-17 -4 0
-16 4 17 0
18 7 0
18 17 0
-7 -17 -18 0
-18 1 -19 0
18 -1 -19 0
-18 -1 19 0
18 1 19 0
21 16 0
21 2 0
-16 -2 -21 0
-22 20 0
-22 -21 0
-20 21 22 0
23 -19 0
23 -22 0
19 22 -23 0
-24 15 0
-24 -23 0
-15 23 24 0
-25 -3 0
-25 3 0
-24 25 -26 0
24 -25 -26 0
-24 -25 26 0
24 25 26 0
-27 16 0
-27 2 0
-16 -2 27 0
29 -27 0
29 28 0
27 -28 -29 0
-30 -26 0
-30 -29 0
26 29 30 0
-32 -27 0
-32 -31 0
27 31 32 0
-33 3 0
-33 -2 0
-3 2 33 0
34 -32 0
34 33 0
32 -33 -34 0
36 -35 0
36 13 0
35 -13 -36 0
-37 10 0
-37 36 0
-10 -36 37 0
-38 -27 0
-38 -37 0
27 37 38 0
-39 -34 0
-39 -38 0
34 38 39 0
27 -14 -40 0
-27 14 -40 0
27 14 40 0
-27 -14 40 0
-40 -9 -41 0
40 9 -41 0
-40 9 41 0
40 -9 41 0
43 -41 0
43 42 0
41 -42 -43 0
-39 43 -44 0
39 -43 -44 0
-39 -43 44 0
39 43 44 0
45 30 0
45 44 0
-30 -44 -45 0
47 9 0
47 -46 0
-9 46 -47 0
45 -47 -48 0
-45 47 -48 0
45 47 48 0
-45 -47 48 0
11 -49 0
-11 -49 0
50 49 0
50 10 0
-49 -10 -50 0
-52 -51 0
-52 19 0
51 -19 52 0
-53 50 0
-53 52 0
-50 -52 53 0
-54 -6 -55 0
54 6 -55 0
-54 6 55 0
54 -6 55 0
56 55 0
56 13 0
-55 -13 -56 0
-56 -42 -57 0
56 42 -57 0
-56 42 57 0
56 -42 57 0
57 16 -58 0
-57 -16 -58 0
57 -16 58 0
-57 16 58 0
58 -31 -59 0
-58 31 -59 0
58 31 59 0
-58 -31 59 0
-60 -53 0
-60 59 0
53 -59 60 0
61 19 0
61 -8 0
-19 8 -61 0
-62 60 0
-62 61 0
-60 -61 62 0
63 -20 0
63 56 0
20 -56 -63 0
32 63 -64 0
-32 -63 -64 0
32 -63 64 0
-32 63 64 0
65 -36 0
65 64 0
36 -64 -65 0
-66 -42 0
-66 17 0
42 -17 66 0
-20 -66 -67 0
20 66 -67 0
-20 66 67 0
20 -66 67 0
-68 31 0
-68 20 0
-31 -20 68 0
69 -21 0
69 -46 0
21 46 -69 0
68 -69 -70 0
-68 69 -70 0
68 69 70 0
-68 -69 70 0
-71 1 0
-71 70 0
-1 -70 71 0
72 -67 0
72 -71 0
67 71 -72 0
-65 -72 -73 0
65 72 -73 0
-65 72 73 0
65 -72 73 0
-62 73 -74 0
62 -73 -74 0
-62 -73 74 0
62 73 74 0
-48 -74 -75 0
48 74 -75 0
-48 74 75 0
48 -74 75 0
-56 -14 -76 0
56 14 -76 0
-56 14 76 0
56 -14 76 0
-77 -57 0
-77 76 0
57 -76 77 0
78 5 0
78 35 0
-5 -35 -78 0
79 -12 0
79 63 0
12 -63 -79 0
-78 -79 -80 0
78 79 -80 0
-78 79 80 0
78 -79 80 0
81 77 0
81 -80 0
-77 80 -81 0
-5 -49 -82 0
5 49 -82 0
-5 49 82 0
5 -49 82 0
82 22 -83 0
-82 -22 -83 0
82 -22 83 0
-82 22 83 0
-66 -68 -84 0
66 68 -84 0
-66 68 84 0
66 -68 84 0
85 84 0
85 5 0
-84 -5 -85 0
21 -85 -86 0
-21 85 -86 0
21 85 86 0
-21 -85 86 0
-14 86 -87 0
14 -86 -87 0
-14 -86 87 0
14 86 87 0
-88 56 0
-88 -87 0
-56 87 88 0
-83 -88 -89 0
83 88 -89 0
-83 88 89 0
83 -88 89 0
90 8 0
90 28 0
-8 -28 -90 0
-89 -90 -91 0
89 90 -91 0
-89 90 91 0
89 -90 91 0
92 8 0
92 7 0
-8 -7 -92 0
93 -55 0
93 92 0
55 -92 -93 0
-94 -2 0
-94 -93 0
2 93 94 0
95 -13 0
95 -20 0
13 20 -95 0
-95 -19 -96 0
95 19 -96 0
-95 19 96 0
95 -19 96 0
94 96 -97 0
-94 -96 -97 0
94 -96 97 0
-94 96 97 0
-27 -13 -98 0
27 13 -98 0
-27 13 98 0
27 -13 98 0
99 98 0
99 84 0
-98 -84 -99 0
-40 -85 -100 0
40 85 -100 0
-40 85 100 0
40 -85 100 0
99 100 -101 0
-99 -100 -101 0
99 -100 101 0
-99 100 101 0
-9 5 -102 0
9 -5 -102 0
-9 -5 102 0
9 5 102 0
101 102 -103 0
-101 -102 -103 0
101 -102 103 0
-101 102 103 0
-104 97 0
-104 -103 0
-97 103 104 0
-105 -91 0
-105 -104 0
91 104 105 0
106 57 0
106 -22 0
-57 22 -106 0
-107 84 0
-107 -6 0
-84 6 107 0
9 1 -108 0
-9 -1 -108 0
9 -1 108 0
-9 1 108 0
109 -107 0
109 -108 0
107 108 -109 0
-110 -16 0
-110 17 0
16 -17 110 0
-111 57 0
-111 -12 0
-57 12 111 0
112 -110 0
112 111 0
110 -111 -112 0
32 -56 -113 0
-32 56 -113 0
32 56 113 0
-32 -56 113 0
-114 -68 0
-114 113 0
68 -113 114 0
112 -114 -115 0
-112 114 -115 0
112 114 115 0
-112 -114 115 0
116 109 0
116 -115 0
-109 115 -116 0
-117 106 0
-117 -116 0
-106 116 117 0
-118 -105 0
-118 -117 0
105 117 118 0
119 81 0
119 118 0
-81 -118 -119 0
120 75 0
120 119 0
-75 -119 -120 0
-110 115 -85 0
47 65 0
114 -45 -98 0
90 -25 0
-28 75 -35 117 -23 -81 0
-6 -62 -28 13 0
-84 73 83 -26 -74 -40 0
44 -116 0
40 -91 -1 0
51 77 0
-120 65 94 0
22 -32 0
-116 5 118 -76 0
102 -34 46 69 -107 0
-61 26 -75 -1 0
50 -82 -18 -48 72 16 0
-8 -55 0
115 -19 0
19 4 100 88 0
111 38 -45 0
12 -52 -110 64 0
42 -60 103 -49 0
94 66 -113 -71 3 0
-1 -63 65 -47 -103 102 0
-55 106 -75 64 -113 0
36 12 105 102 22 0
-85 -65 -21 0
-12 -10 -42 0
-16 -21 -109 111 57 0
55 -11 -54 0
-4 -58 0
28 85 -22 -19 0
27 31 -36 0
-69 -86 88 0
-99 -19 15 36 0
-59 -2 81 0
62 2 46 -71 -70 0
65 11 51 99 0
55 85 0
-37 55 -48 45 24 0
-97 30 119 35 0
64 -18 0
-10 -19 0
-88 -68 0
-73 28 0
112 -30 0
-32 -120 26 98 37 0
-42 43 0
-36 -109 59 0
67 -15 0
31 -87 86 110 0
-98 -78 0
120 0
